
  32    4
  10   10   10   10

   0   0   0   0   0   2 2 3 
  10   1   1   1   0   2 6 4 
   9   3   0   4   1   2 6 4 
   4   4   4   4   0   2 7 5 
   6   2   0   8   6   2 9 8 
  10   7   0   3   4   1 7 
   9   4   0   2   3   2 10 9 
   8   6   5   3   0   2 11 10 
   9   4   5   5   0   2 12 11 
   4   2   0   1   2   2 13 12 
  10   4   0   5   4   2 15 13 
   6   6   3   0   5   3 17 15 14 
   6   6   2   4   0   2 17 14 
   6   3   0   8   6   1 16 
   4   5   3   0   3   1 16 
   2   4   0   9   3   2 19 18 
  10   0   5   1   5   2 19 18 
   1   0   5   3   4   2 23 20 
   4   2   0   4   3   1 20 
  10   7   3   0   6   1 21 
   1   3   2   5   0   2 24 22 
   9   5  10   0   2   2 26 25 
   8   5   2   0   6   2 26 25 
   8   2   4   4   0   2 29 26 
  10   0  10   4   5   3 29 28 27 
   4   4   3   1   0   2 28 27 
   5   5   0   7   6   2 31 30 
   1   4   6   0   4   2 31 30 
   5   2   0   2   3   2 31 30 
   6   0   2   6   3   1 32
   1   0   1   2   4   1 32
   0   0   0   0   0   0 
